1 -1 -2 0
1 1 3 0
1 4 5 0
1 -4 -6 0
1 -4 -2 0
1 4 1 0
1 4 -3 0
1 -7 8 0
1 -7 9 0
1 7 -10 0
1 7 3 0
1 -11 12 0
1 11 8 0
1 -11 -13 0
1 11 6 0
1 -11 7 0
1 11 10 0
1 -2 -14 0
1 2 -15 0
1 -2 16 0
1 3 -11 0
1 6 17 0
1 6 18 0
1 10 -19 0
1 -10 -17 0
1 -10 -11 0
1 -10 -6 0
1 10 -20 0
1 21 -12 0
1 -21 -3 0
1 15 -22 0
1 -15 23 0
1 -15 -2 0
1 15 9 0
1 15 24 0
1 -22 -23 0
1 -22 -24 0
1 22 -25 0
1 22 3 0
1 24 -26 0
1 -24 11 0
1 24 27 0
1 -24 28 0
1 -24 29 0
1 -24 -15 0
1 -24 30 0
1 8 -31 0
1 -8 26 0
1 8 21 0
1 -8 11 0
1 8 32 0
1 8 -28 0
1 -8 -24 0
1 8 -16 0
1 -8 7 0
1 -9 -12 0
1 9 -33 0
1 9 -22 0
1 9 -11 0
1 9 32 0
1 9 34 0
1 9 35 0
1 -9 15 0
1 9 -16 0
1 9 -30 0
1 12 -36 0
1 -12 -32 0
1 -12 9 0
1 12 -14 0
1 12 -30 0
1 -28 8 0
1 28 -14 0
1 26 23 0
1 26 -24 0
1 27 37 0
1 27 23 0
1 -27 25 0
1 31 37 0
1 -31 23 0
1 -31 -27 0
1 31 -24 0
1 -25 22 0
1 25 38 0
1 -25 27 0
1 25 -28 0
1 25 -39 0
1 -23 -22 0
1 23 -28 0
1 40 -31 0
1 -40 26 0
1 -40 22 0
1 -37 -31 0
1 -37 41 0
1 -37 38 0
1 37 27 0
1 37 28 0
1 -42 -43 0
1 -42 -5 0
1 -42 1 0
1 5 -44 0
1 45 -46 0
1 45 -13 0
1 -45 44 0
1 -45 -47 0
1 13 -46 0
1 13 48 0
1 -13 -11 0
1 13 49 0
1 -13 -44 0
1 -50 -51 0
1 50 19 0
1 -50 17 0
1 -50 -5 0
1 -50 -18 0
1 50 20 0
1 44 19 0
1 44 52 0
1 -44 18 0
1 -44 42 0
1 -43 -53 0
1 43 54 0
1 43 -13 0
1 -43 55 0
1 43 42 0
1 -49 -54 0
1 49 52 0
1 -49 -42 0
1 20 -46 0
1 -20 -17 0
1 -20 -6 0
1 -20 56 0
1 20 -55 0
1 -17 21 0
1 17 48 0
1 -17 -44 0
1 17 10 0
1 18 -48 0
1 18 57 0
1 18 -10 0
1 -19 -56 0
1 19 48 0
1 19 -44 0
1 19 47 0
1 48 19 0
1 -48 -17 0
1 -48 58 0
1 -48 -34 0
1 -48 14 0
1 48 18 0
1 56 -59 0
1 56 -33 0
1 56 36 0
1 56 48 0
1 46 -51 0
1 -46 -17 0
1 -46 -47 0
1 47 -51 0
1 47 -19 0
1 -47 -46 0
1 47 58 0
1 47 -60 0
1 -47 -61 0
1 -14 12 0
1 14 48 0
1 -14 62 0
1 14 9 0
1 -14 -28 0
1 14 -63 0
1 -14 10 0
1 -36 -12 0
1 -36 -26 0
1 -36 -48 0
1 -36 6 0
1 36 -2 0
1 34 -48 0
1 34 -62 0
1 34 64 0
1 -34 65 0
1 -34 60 0
1 34 56 0
1 -34 -63 0
1 34 -66 0
1 -33 67 0
1 33 64 0
1 -33 -34 0
1 -33 63 0
1 33 -66 0
1 33 68 0
1 64 -33 0
1 64 -19 0
1 64 -34 0
1 -64 14 0
1 -66 33 0
1 66 -36 0
1 66 -19 0
1 66 64 0
1 -66 69 0
1 -66 70 0
1 66 71 0
1 62 36 0
1 -62 72 0
1 62 58 0
1 -62 18 0
1 -62 -70 0
1 -63 33 0
1 -63 36 0
1 63 -19 0
1 -63 58 0
1 -63 -18 0
1 -63 73 0
1 -63 -74 0
1 32 -64 0
1 32 65 0
1 32 -58 0
1 -32 75 0
1 32 24 0
1 -32 40 0
1 30 -8 0
1 30 -65 0
1 30 -9 0
1 -30 40 0
1 -76 67 0
1 76 77 0
1 -76 -78 0
1 -76 37 0
1 -76 66 0
1 76 71 0
1 -76 68 0
1 -71 67 0
1 71 77 0
1 71 -78 0
1 71 37 0
1 71 -76 0
1 71 -75 0
1 71 68 0
1 75 -67 0
1 -75 79 0
1 -75 -32 0
1 -75 2 0
1 -75 80 0
1 -75 81 0
1 -75 -71 0
1 75 -30 0
1 -67 -79 0
1 67 -32 0
1 67 -3 0
1 -67 80 0
1 67 -71 0
1 65 33 0
1 65 82 0
1 -65 76 0
1 65 -83 0
1 -65 -84 0
1 65 -30 0
1 68 33 0
1 68 -69 0
1 68 76 0
1 68 -10 0
1 68 80 0
1 38 -69 0
1 38 75 0
1 -38 25 0
1 85 67 0
1 85 77 0
1 -85 37 0
1 85 -38 0
1 85 -75 0
1 85 40 0
1 79 77 0
1 -79 -86 0
1 -79 -75 0
1 79 -39 0
1 -81 -78 0
1 -81 35 0
1 81 87 0
1 -29 -78 0
1 29 -79 0
1 -29 38 0
1 29 76 0
1 29 24 0
1 -29 -88 0
1 -78 -89 0
1 78 90 0
1 -78 -79 0
1 -78 -38 0
1 78 -91 0
1 -78 -92 0
1 78 81 0
1 -78 71 0
1 35 89 0
1 -35 -93 0
1 -35 -82 0
1 35 9 0
1 35 -91 0
1 -35 -94 0
1 -35 -85 0
1 77 -82 0
1 -77 -91 0
1 95 86 0
1 95 82 0
1 95 -29 0
1 95 -39 0
1 -96 -95 0
1 96 87 0
1 -96 -39 0
1 -97 93 0
1 -97 29 0
1 -97 39 0
1 -92 97 0
1 -92 41 0
1 92 94 0
1 92 -39 0
1 -39 -97 0
1 -39 -92 0
1 -39 -81 0
1 -39 98 0
1 86 99 0
1 -86 23 0
1 -86 100 0
1 -86 92 0
1 87 89 0
1 -87 97 0
1 87 41 0
1 -87 101 0
1 87 92 0
1 -87 40 0
1 87 96 0
1 -87 81 0
1 41 37 0
1 -41 -97 0
1 41 102 0
1 -41 -95 0
1 41 -79 0
1 -41 92 0
1 -103 -104 0
1 103 -105 0
1 103 106 0
1 103 107 0
1 108 105 0
1 -108 109 0
1 -108 -110 0
1 -108 45 0
1 111 -105 0
1 -111 -112 0
1 111 113 0
1 111 -114 0
1 -114 -54 0
1 114 -111 0
1 -114 -103 0
1 -114 115 0
1 -105 116 0
1 105 -107 0
1 117 -118 0
1 117 115 0
1 -117 119 0
1 117 -107 0
1 104 -120 0
1 -104 111 0
1 -104 115 0
1 104 -121 0
1 -55 43 0
1 -55 109 0
1 55 -122 0
1 -54 -43 0
1 54 17 0
1 54 109 0
1 54 -110 0
1 -54 114 0
1 54 -55 0
1 -57 -123 0
1 57 105 0
1 57 -112 0
1 -53 -123 0
1 -53 -114 0
1 -53 19 0
1 53 105 0
1 -53 -120 0
1 53 -109 0
1 53 -124 0
1 -53 -125 0
1 -53 -122 0
1 122 126 0
1 -122 111 0
1 -122 -127 0
1 -122 52 0
1 -122 -128 0
1 109 -126 0
1 109 -51 0
1 109 53 0
1 -109 -127 0
1 -109 52 0
1 -109 57 0
1 -110 129 0
1 110 111 0
1 110 127 0
1 -112 129 0
1 -112 -130 0
1 -112 127 0
1 -112 131 0
1 -112 115 0
1 -112 -55 0
1 112 108 0
1 52 123 0
1 52 124 0
1 -52 49 0
1 51 -123 0
1 51 36 0
1 51 -125 0
1 -51 -122 0
1 -51 132 0
1 -60 -123 0
1 60 -133 0
1 60 46 0
1 60 109 0
1 60 -122 0
1 -126 123 0
1 -126 33 0
1 -126 -134 0
1 126 60 0
1 -126 122 0
1 -126 -132 0
1 123 58 0
1 -123 -60 0
1 125 123 0
1 125 -126 0
1 125 -51 0
1 125 -53 0
1 -125 60 0
1 -125 52 0
1 132 -129 0
1 -132 -126 0
1 -132 -51 0
1 -132 52 0
1 124 129 0
1 -124 126 0
1 -124 -51 0
1 124 135 0
1 124 -136 0
1 124 -127 0
1 124 137 0
1 124 -132 0
1 -58 -138 0
1 -58 -46 0
1 -58 -48 0
1 58 -127 0
1 -58 -47 0
1 58 63 0
1 59 -123 0
1 -59 -133 0
1 59 46 0
1 59 62 0
1 -59 125 0
1 -59 -134 0
1 -59 63 0
1 -139 138 0
1 -139 140 0
1 139 61 0
1 139 74 0
1 -74 -133 0
1 74 141 0
1 -74 62 0
1 74 -140 0
1 -74 -71 0
1 133 -59 0
1 -133 142 0
1 -133 -143 0
1 -133 -69 0
1 133 -58 0
1 -133 70 0
1 133 -74 0
1 140 -133 0
1 140 144 0
1 -140 -139 0
1 -140 58 0
1 140 74 0
1 -138 126 0
1 -138 -58 0
1 -138 -134 0
1 138 -60 0
1 -138 -145 0
1 -138 -146 0
1 -134 -126 0
1 134 135 0
1 -134 -139 0
1 -134 -58 0
1 134 49 0
1 -69 -147 0
1 -69 -64 0
1 -69 -135 0
1 -69 140 0
1 -69 61 0
1 69 -70 0
1 -69 -68 0
1 -70 133 0
1 70 141 0
1 70 64 0
1 -70 61 0
1 70 68 0
1 143 -73 0
1 143 147 0
1 143 79 0
1 143 -72 0
1 143 148 0
1 143 65 0
1 -143 -140 0
1 143 68 0
1 -84 -147 0
1 84 141 0
1 -84 -72 0
1 84 149 0
1 -84 -150 0
1 -84 -81 0
1 84 -151 0
1 84 68 0
1 141 152 0
1 -141 48 0
1 141 -153 0
1 141 -143 0
1 -141 -69 0
1 -141 154 0
1 141 94 0
1 -141 -84 0
1 141 70 0
1 150 152 0
1 150 -143 0
1 150 -139 0
1 -150 94 0
1 150 -56 0
1 -150 74 0
1 -147 -152 0
1 -147 155 0
1 147 69 0
1 -147 70 0
1 147 74 0
1 -61 -144 0
1 61 -143 0
1 -61 -154 0
1 61 -70 0
1 61 -74 0
1 -82 67 0
1 -82 77 0
1 -82 150 0
1 -82 -95 0
1 -82 35 0
1 -80 77 0
1 80 -141 0
1 -80 -72 0
1 80 -65 0
1 80 75 0
1 -80 96 0
1 80 -150 0
1 80 -145 0
1 80 68 0
1 -93 156 0
1 -93 -141 0
1 -93 -72 0
1 -93 149 0
1 93 -83 0
1 -93 157 0
1 -93 -35 0
1 -93 -94 0
1 -93 -151 0
1 -93 -158 0
1 94 156 0
1 94 77 0
1 -94 -93 0
1 94 72 0
1 94 -159 0
1 -149 -160 0
1 149 -89 0
1 -149 93 0
1 -149 161 0
1 149 -162 0
1 -149 -84 0
1 -151 -163 0
1 151 -89 0
1 151 143 0
1 151 -149 0
1 -151 101 0
1 151 -84 0
1 -151 -66 0
1 72 -164 0
1 72 152 0
1 -72 62 0
1 -72 -165 0
1 72 94 0
1 -72 84 0
1 -73 -160 0
1 73 -93 0
1 -73 -82 0
1 73 162 0
1 -73 -80 0
1 -73 -166 0
1 89 41 0
1 89 -149 0
1 -89 -29 0
1 89 -151 0
1 -91 41 0
1 -91 -157 0
1 91 158 0
1 163 167 0
1 -163 157 0
1 -163 168 0
1 -163 -88 0
1 163 -151 0
1 101 -156 0
1 101 41 0
1 -101 -83 0
1 101 -169 0
1 101 87 0
1 -157 -89 0
1 -157 -93 0
1 157 91 0
1 -157 94 0
1 -157 -170 0
1 -156 -67 0
1 -156 163 0
1 -156 -171 0
1 -156 172 0
1 -156 -101 0
1 -156 173 0
1 83 -160 0
1 -83 163 0
1 -83 -89 0
1 -83 -93 0
1 83 171 0
1 83 174 0
1 -83 -162 0
1 83 -101 0
1 -83 175 0
1 -83 91 0
1 -83 94 0
1 83 173 0
1 158 -176 0
1 158 -163 0
1 158 93 0
1 -158 162 0
1 -158 -94 0
1 -158 173 0
1 158 177 0
1 -99 -160 0
1 99 -167 0
1 99 41 0
1 172 -99 0
1 -172 -156 0
1 172 -162 0
1 172 -87 0
1 172 -39 0
1 -170 167 0
1 170 102 0
1 -170 178 0
1 170 -157 0
1 -170 -177 0
1 -178 -157 0
1 178 -88 0
1 178 -170 0
1 88 -179 0
1 88 172 0
1 88 29 0
1 88 -180 0
1 -88 -181 0
1 90 -163 0
1 -90 -78 0
1 -90 178 0
1 -90 -182 0
1 90 170 0
1 168 -163 0
1 -168 -178 0
1 -168 -183 0
1 -168 173 0
1 167 163 0
1 -167 172 0
1 -167 -168 0
1 167 -184 0
1 -167 -173 0
1 167 -170 0
1 -181 102 0
1 181 -185 0
1 -181 98 0
1 186 -102 0
1 -186 88 0
1 186 -98 0
1 182 -187 0
1 -182 98 0
1 187 102 0
1 -187 100 0
1 -187 88 0
1 -187 -185 0
1 98 -188 0
1 -98 -100 0
1 -98 -182 0
1 -98 181 0
1 -100 -98 0
1 -100 188 0
1 -100 86 0
1 -100 178 0
1 -100 -189 0
1 100 -170 0
1 185 179 0
1 185 102 0
1 185 -186 0
1 -185 -178 0
1 -185 190 0
1 -185 87 0
1 185 191 0
1 102 188 0
1 -102 192 0
1 102 41 0
1 102 -179 0
1 -102 187 0
1 -102 -186 0
1 102 -178 0
1 102 -189 0
1 102 182 0
1 -102 -181 0
1 -193 -194 0
1 193 -106 0
1 193 107 0
1 -106 195 0
1 -106 -196 0
1 -197 -113 0
1 -197 -196 0
1 -197 198 0
1 -113 -199 0
1 113 196 0
1 113 -198 0
1 199 118 0
1 -199 -106 0
1 -199 -196 0
1 -199 119 0
1 196 120 0
1 196 -113 0
1 196 -106 0
1 196 197 0
1 -194 -195 0
1 -194 197 0
1 194 193 0
1 -195 -194 0
1 -195 106 0
1 -195 193 0
1 119 -200 0
1 -119 -201 0
1 119 -198 0
1 -118 202 0
1 -118 200 0
1 118 117 0
1 -118 196 0
1 -121 -104 0
1 121 120 0
1 -121 -199 0
1 -121 -200 0
1 121 203 0
1 -121 201 0
1 120 204 0
1 -120 53 0
1 -120 -199 0
1 120 -202 0
1 -120 205 0
1 120 -121 0
1 -200 120 0
1 -200 113 0
1 200 115 0
1 200 -197 0
1 -198 206 0
1 198 -130 0
1 -198 120 0
1 -198 118 0
1 198 113 0
1 -198 121 0
1 -198 197 0
1 -202 -201 0
1 202 -118 0
1 -202 207 0
1 -202 -119 0
1 -201 113 0
1 201 202 0
1 201 119 0
1 201 -208 0
1 -115 52 0
1 115 -110 0
1 115 198 0
1 130 209 0
1 -130 -204 0
1 -130 105 0
1 130 112 0
1 130 -200 0
1 130 115 0
1 -130 198 0
1 -131 -209 0
1 -131 210 0
1 -131 112 0
1 -131 205 0
1 131 110 0
1 211 209 0
1 211 -126 0
1 211 210 0
1 -211 -200 0
1 211 -203 0
1 -211 -212 0
1 205 -129 0
1 -205 -130 0
1 205 -213 0
1 -205 127 0
1 -205 214 0
1 -205 215 0
1 -204 -130 0
1 -204 120 0
1 204 -213 0
1 -204 216 0
1 204 205 0
1 204 -131 0
1 -203 -217 0
1 203 209 0
1 203 -218 0
1 -203 -120 0
1 -203 219 0
1 203 -220 0
1 -203 131 0
1 203 -214 0
1 209 217 0
1 209 -218 0
1 209 -219 0
1 209 220 0
1 209 131 0
1 -127 -210 0
1 127 112 0
1 127 109 0
1 127 205 0
1 127 212 0
1 -127 122 0
1 129 218 0
1 -129 -109 0
1 129 -127 0
1 129 132 0
1 216 -221 0
1 216 222 0
1 -215 -116 0
1 -215 221 0
1 215 -223 0
1 215 -205 0
1 -215 -132 0
1 215 -74 0
1 -212 -129 0
1 -212 -211 0
1 212 148 0
1 -212 135 0
1 -212 -224 0
1 212 -216 0
1 -212 146 0
1 116 225 0
1 -116 226 0
1 -116 216 0
1 -116 146 0
1 -222 211 0
1 -222 117 0
1 210 -129 0
1 -210 211 0
1 210 104 0
1 210 -227 0
1 -210 216 0
1 210 -127 0
1 210 -131 0
1 -210 228 0
1 -210 -214 0
1 -135 -123 0
1 -135 138 0
1 135 -69 0
1 -135 124 0
1 -135 -125 0
1 135 128 0
1 135 -137 0
1 135 132 0
1 137 132 0
1 -137 -138 0
1 137 -135 0
1 137 -134 0
1 137 212 0
1 -137 128 0
1 137 -214 0
1 -148 -229 0
1 148 116 0
1 -148 -143 0
1 -148 230 0
1 148 -231 0
1 146 229 0
1 -146 116 0
1 146 221 0
1 146 -223 0
1 -146 -232 0
1 -146 -134 0
1 -146 -230 0
1 -146 233 0
1 -128 234 0
1 -128 223 0
1 128 -159 0
1 128 145 0
1 -128 122 0
1 -223 234 0
1 223 144 0
1 223 -148 0
1 -223 -135 0
1 -223 -216 0
1 -223 146 0
1 223 137 0
1 -223 215 0
1 230 -146 0
1 230 -235 0
1 -230 215 0
1 221 -226 0
1 221 -236 0
1 -221 216 0
1 221 228 0
1 -221 146 0
1 221 215 0
1 144 -229 0
1 144 -82 0
1 144 226 0
1 144 -136 0
1 -144 140 0
1 144 -61 0
1 -144 145 0
1 -145 -229 0
1 -145 -232 0
1 145 134 0
1 -145 -140 0
1 -237 -147 0
1 -237 136 0
1 -237 232 0
1 -237 238 0
1 237 159 0
1 -237 -128 0
1 237 231 0
1 -159 -229 0
1 -159 -238 0
1 -159 -239 0
1 159 -61 0
1 159 94 0
1 -159 -240 0
1 -159 128 0
1 159 231 0
1 -229 -241 0
1 -229 -164 0
1 229 242 0
1 229 -144 0
1 229 169 0
1 -229 -159 0
1 229 145 0
1 232 -241 0
1 232 -164 0
1 -232 -152 0
1 -232 148 0
1 232 154 0
1 232 -145 0
1 -231 -241 0
1 231 144 0
1 231 -243 0
1 -231 -244 0
1 -231 -159 0
1 -231 146 0
1 -231 132 0
1 136 -144 0
1 -136 148 0
1 136 -124 0
1 136 -244 0
1 -136 -145 0
1 -136 146 0
1 136 231 0
1 152 142 0
1 -152 -72 0
1 -152 -232 0
1 152 -239 0
1 152 150 0
1 154 -229 0
1 -154 -152 0
1 154 147 0
1 154 -141 0
1 -154 72 0
1 154 238 0
1 154 61 0
1 154 239 0
1 -164 229 0
1 -164 163 0
1 164 155 0
1 164 232 0
1 -164 169 0
1 -164 -238 0
1 -164 -245 0
1 -164 -73 0
1 -169 229 0
1 -169 -246 0
1 169 142 0
1 -169 -153 0
1 -169 -72 0
1 169 -232 0
1 169 239 0
1 -169 -245 0
1 -142 160 0
1 -142 152 0
1 142 237 0
1 -142 -154 0
1 -142 -239 0
1 -142 -159 0
1 -239 160 0
1 -239 -247 0
1 239 -174 0
1 -239 -140 0
1 246 248 0
1 -246 237 0
1 246 249 0
1 -246 -243 0
1 246 -159 0
1 238 -152 0
1 238 -247 0
1 -238 -169 0
1 -238 250 0
1 160 99 0
1 -160 -153 0
1 160 72 0
1 160 162 0
1 -160 -83 0
1 160 239 0
1 160 -251 0
1 -162 -155 0
1 -162 -149 0
1 162 -172 0
1 162 243 0
1 -177 -252 0
1 -177 -142 0
1 177 245 0
1 177 -166 0
1 177 -253 0
1 177 -158 0
1 -174 177 0
1 174 -249 0
1 -174 245 0
1 -174 251 0
1 174 -166 0
1 -174 253 0
1 -153 -160 0
1 153 -164 0
1 153 -251 0
1 -153 -141 0
1 153 -171 0
1 153 -174 0
1 -153 -162 0
1 153 -169 0
1 153 -177 0
1 251 -164 0
1 -251 -171 0
1 251 162 0
1 251 -254 0
1 -251 -173 0
1 -155 164 0
1 155 -254 0
1 245 -164 0
1 -245 155 0
1 -245 -162 0
1 245 169 0
1 -245 -61 0
1 -245 254 0
1 245 255 0
1 -173 -167 0
1 173 161 0
1 -173 166 0
1 -173 181 0
1 173 158 0
1 171 -156 0
1 171 186 0
1 -171 247 0
1 171 253 0
1 171 -158 0
1 -184 167 0
1 -184 -161 0
1 -184 253 0
1 -256 -176 0
1 256 -257 0
1 -256 -167 0
1 256 -187 0
1 -256 166 0
1 256 -168 0
1 256 184 0
1 -256 253 0
1 -161 184 0
1 253 179 0
1 -253 190 0
1 -253 258 0
1 253 -184 0
1 -253 151 0
1 -253 259 0
1 -253 -177 0
1 165 -72 0
1 165 174 0
1 -165 260 0
1 165 -261 0
1 165 254 0
1 165 -177 0
1 -166 262 0
1 166 171 0
1 166 174 0
1 166 260 0
1 166 -261 0
1 -258 176 0
1 258 -257 0
1 258 -179 0
1 -258 -161 0
1 -258 175 0
1 258 263 0
1 -258 -88 0
1 258 253 0
1 179 -176 0
1 179 257 0
1 179 167 0
1 -179 90 0
1 179 -102 0
1 -179 264 0
1 -179 175 0
1 179 185 0
1 -190 257 0
1 190 102 0
1 -190 -180 0
1 -190 253 0
1 -192 176 0
1 192 265 0
1 -192 -266 0
1 192 175 0
1 192 263 0
1 -192 -183 0
1 192 180 0
1 -192 185 0
1 263 267 0
1 -263 268 0
1 -263 -188 0
1 -263 179 0
1 -263 -269 0
1 263 -258 0
1 -263 184 0
1 -257 -267 0
1 257 -184 0
1 175 -267 0
1 175 -270 0
1 -175 -83 0
1 175 190 0
1 175 184 0
1 -176 271 0
1 176 175 0
1 189 257 0
1 189 -266 0
1 188 -257 0
1 -188 -272 0
1 -188 266 0
1 188 -100 0
1 -188 263 0
1 -188 -189 0
1 -269 -268 0
1 269 -272 0
1 -269 273 0
1 269 274 0
1 269 263 0
1 -269 -183 0
1 -269 -191 0
1 -268 257 0
1 268 266 0
1 268 263 0
1 180 -266 0
1 -180 -269 0
1 -180 -190 0
1 180 88 0
1 -266 -275 0
1 -183 -267 0
1 183 -268 0
1 183 -192 0
1 -183 269 0
1 -183 168 0
1 183 -190 0
1 272 188 0
1 -272 -167 0
1 272 192 0
1 -272 271 0
1 272 -269 0
1 272 -189 0
1 276 266 0
1 -276 -191 0
1 276 277 0
1 -278 -267 0
1 278 -266 0
1 -279 -266 0
1 -279 280 0
1 279 277 0
1 279 -275 0
1 -275 266 0
1 -275 279 0
1 -275 281 0
1 -277 -273 0
1 277 -276 0
1 -277 269 0
1 -277 98 0
1 277 275 0
1 277 -278 0
1 -273 268 0
1 -273 100 0
1 273 -269 0
1 191 -279 0
1 -191 -276 0
1 -191 275 0
1 191 -278 0
1 -280 275 0
1 -220 -282 0
1 220 -200 0
1 220 203 0
1 218 -129 0
1 -218 209 0
1 218 -200 0
1 218 -283 0
1 -218 198 0
1 219 -217 0
1 219 -209 0
1 219 207 0
1 -219 -203 0
1 219 283 0
1 -219 -284 0
1 217 -206 0
1 217 -209 0
1 217 -285 0
1 -217 282 0
1 217 -219 0
1 217 -203 0
1 217 -286 0
1 -217 -283 0
1 217 -284 0
1 217 -215 0
1 282 -227 0
1 282 214 0
1 284 217 0
1 -284 -218 0
1 284 227 0
1 284 282 0
1 285 194 0
1 285 -283 0
1 283 -217 0
1 283 -285 0
1 283 220 0
1 283 -195 0
1 213 209 0
1 -213 -282 0
1 -213 -135 0
1 213 203 0
1 213 -205 0
1 -213 -214 0
1 214 206 0
1 214 -282 0
1 214 222 0
1 214 -284 0
1 -227 -286 0
1 227 287 0
1 -233 206 0
1 233 227 0
1 233 -286 0
1 233 -288 0
1 -233 -222 0
1 -286 289 0
1 286 -213 0
1 286 290 0
1 286 -214 0
1 -206 -291 0
1 206 -289 0
1 -206 -226 0
1 -206 -227 0
1 -206 240 0
1 -206 228 0
1 207 -227 0
1 -207 202 0
1 207 -213 0
1 -207 292 0
1 207 219 0
1 -207 290 0
1 -208 293 0
1 -208 -233 0
1 208 -214 0
1 -226 210 0
1 -226 222 0
1 226 -212 0
1 226 -230 0
1 -228 -294 0
1 -228 226 0
1 228 212 0
1 228 -287 0
1 228 -145 0
1 289 206 0
1 289 -295 0
1 -289 -225 0
1 -289 224 0
1 289 -230 0
1 -240 295 0
1 -240 -294 0
1 -240 -296 0
1 240 289 0
1 -240 287 0
1 -240 230 0
1 -288 297 0
1 288 -289 0
1 288 -227 0
1 288 -244 0
1 -288 233 0
1 -294 -297 0
1 -294 -298 0
1 294 244 0
1 294 -299 0
1 294 -240 0
1 -294 228 0
1 294 233 0
1 287 -297 0
1 287 -226 0
1 287 -227 0
1 -287 300 0
1 -287 -240 0
1 287 233 0
1 -295 297 0
1 -295 226 0
1 295 301 0
1 295 -240 0
1 295 228 0
1 -295 233 0
1 -234 152 0
1 -234 -293 0
1 234 -296 0
1 234 -225 0
1 234 -221 0
1 234 223 0
1 234 -224 0
1 -299 -294 0
1 -299 296 0
1 299 -223 0
1 299 -154 0
1 299 290 0
1 -299 224 0
1 302 -294 0
1 302 -296 0
1 302 225 0
1 302 -236 0
1 -302 -244 0
1 302 303 0
1 -302 235 0
1 302 304 0
1 244 -294 0
1 244 -288 0
1 -244 -224 0
1 -244 -304 0
1 244 231 0
1 224 -225 0
1 224 244 0
1 -224 305 0
1 224 306 0
1 -225 -234 0
1 -225 307 0
1 225 -249 0
1 225 244 0
1 225 -306 0
1 -303 -234 0
1 303 -307 0
1 -303 -244 0
1 -303 222 0
1 303 240 0
1 303 -306 0
1 -296 -297 0
1 -296 -234 0
1 296 -303 0
1 296 -210 0
1 296 -289 0
1 -296 308 0
1 296 299 0
1 296 -240 0
1 -241 297 0
1 241 246 0
1 -241 -225 0
1 -241 236 0
1 -241 232 0
1 241 224 0
1 243 241 0
1 -243 -246 0
1 243 236 0
1 -243 301 0
1 243 238 0
1 -243 -224 0
1 243 -231 0
1 -252 -309 0
1 252 225 0
1 252 249 0
1 252 310 0
1 252 -238 0
1 -252 -235 0
1 249 -252 0
1 -249 225 0
1 249 -174 0
1 249 -311 0
1 249 312 0
1 -249 238 0
1 -304 313 0
1 304 314 0
1 304 128 0
1 -304 315 0
1 313 -241 0
1 313 -243 0
1 -313 244 0
1 -313 314 0
1 235 252 0
1 -235 236 0
1 -235 -316 0
1 -235 243 0
1 235 314 0
1 -235 -306 0
1 -236 -252 0
1 -236 241 0
1 -236 221 0
1 236 -316 0
1 236 -243 0
1 -236 -244 0
1 -236 -314 0
1 -247 -171 0
1 247 313 0
1 -255 -250 0
1 -255 -245 0
1 317 -309 0
1 -317 -155 0
1 317 -316 0
1 -317 310 0
1 -317 -304 0
1 242 -318 0
1 242 -264 0
1 242 317 0
1 -242 -261 0
1 -312 318 0
1 -312 -264 0
1 -312 247 0
1 312 -249 0
1 -312 232 0
1 312 319 0
1 -312 -261 0
1 309 -252 0
1 309 -320 0
1 -309 -318 0
1 309 321 0
1 309 317 0
1 -309 322 0
1 309 323 0
1 309 314 0
1 310 252 0
1 -310 136 0
1 310 -323 0
1 310 314 0
1 254 -242 0
1 254 248 0
1 254 -312 0
1 -254 250 0
1 254 324 0
1 -254 251 0
1 -254 -314 0
1 -254 -166 0
1 -264 -242 0
1 264 179 0
1 -264 155 0
1 264 325 0
1 264 -326 0
1 -264 312 0
1 -264 -254 0
1 261 -248 0
1 261 -327 0
1 -261 324 0
1 261 -328 0
1 -265 -242 0
1 265 -329 0
1 265 327 0
1 -265 165 0
1 265 -261 0
1 265 -330 0
1 265 -166 0
1 -326 -270 0
1 -326 262 0
1 -326 -142 0
1 326 -264 0
1 -326 331 0
1 326 274 0
1 -326 -260 0
1 -324 -270 0
1 324 326 0
1 -324 317 0
1 324 331 0
1 324 261 0
1 248 332 0
1 248 318 0
1 248 264 0
1 248 -331 0
1 -248 -250 0
1 250 333 0
1 -250 238 0
1 250 -334 0
1 -250 254 0
1 -260 -176 0
1 -260 -326 0
1 260 329 0
1 260 -327 0
1 -260 161 0
1 -260 322 0
1 260 330 0
1 260 -166 0
1 -262 -188 0
1 -262 327 0
1 -262 -165 0
1 -262 -260 0
1 -274 -176 0
1 -274 326 0
1 -274 269 0
1 -274 -328 0
1 274 335 0
1 274 -259 0
1 270 176 0
1 -270 268 0
1 270 326 0
1 -270 -329 0
1 270 -336 0
1 -270 -337 0
1 -270 -175 0
1 270 274 0
1 327 -270 0
1 327 -265 0
1 327 -271 0
1 327 -330 0
1 327 -281 0
1 330 327 0
1 -330 -338 0
1 -329 -262 0
1 329 265 0
1 -329 339 0
1 -329 -331 0
1 329 -274 0
1 329 340 0
1 328 -265 0
1 -328 -339 0
1 -328 -331 0
1 -328 261 0
1 -328 -245 0
1 -328 340 0
1 271 -176 0
1 271 -272 0
1 271 -327 0
1 -271 -337 0
1 -271 -331 0
1 -271 -263 0
1 -271 -183 0
1 -271 330 0
1 -271 335 0
1 -267 176 0
1 267 -257 0
1 267 -272 0
1 267 327 0
1 267 -175 0
1 -267 183 0
1 -267 335 0
1 267 -278 0
1 338 272 0
1 338 -336 0
1 -338 -337 0
1 338 -183 0
1 -338 -281 0
1 -281 327 0
1 -281 335 0
1 -281 275 0
1 -281 -340 0
1 -337 -270 0
1 337 338 0
1 -336 -267 0
1 336 338 0
1 336 -271 0
1 -336 281 0
1 335 338 0
1 -293 -290 0
1 -293 341 0
1 -290 293 0
1 290 207 0
1 290 -341 0
1 -290 -208 0
1 -342 302 0
1 -342 343 0
1 342 287 0
1 342 -300 0
1 342 -344 0
1 300 292 0
1 300 -287 0
1 345 342 0
1 345 -300 0
1 -344 346 0
1 344 311 0
1 344 -284 0
1 -343 -342 0
1 297 -241 0
1 297 -296 0
1 297 -287 0
1 297 347 0
1 301 -294 0
1 301 296 0
1 301 -292 0
1 -301 303 0
1 301 344 0
1 301 347 0
1 346 252 0
1 346 -298 0
1 -346 296 0
1 346 292 0
1 346 -348 0
1 346 349 0
1 -311 296 0
1 311 249 0
1 -311 -292 0
1 311 -350 0
1 311 -347 0
1 -348 307 0
1 -348 286 0
1 -348 301 0
1 -348 300 0
1 -348 -351 0
1 -291 346 0
1 -291 342 0
1 291 -307 0
1 -291 311 0
1 -291 348 0
1 291 300 0
1 291 352 0
1 292 297 0
1 -292 353 0
1 292 -352 0
1 292 -347 0
1 -347 297 0
1 -347 354 0
1 347 301 0
1 -306 -298 0
1 306 -348 0
1 306 -349 0
1 -307 -355 0
1 -307 224 0
1 -307 235 0
1 -351 355 0
1 351 308 0
1 -351 316 0
1 -351 -349 0
1 351 235 0
1 -316 -308 0
1 316 317 0
1 -316 -348 0
1 -316 349 0
1 316 305 0
1 -316 -235 0
1 -350 -346 0
1 350 321 0
1 350 323 0
1 298 -346 0
1 -298 -294 0
1 -298 -321 0
1 298 -356 0
1 298 325 0
1 -298 -307 0
1 298 -314 0
1 -349 346 0
1 -349 357 0
1 349 354 0
1 -349 311 0
1 349 306 0
1 355 307 0
1 -355 -349 0
1 355 358 0
1 355 -352 0
1 -355 306 0
1 -314 -298 0
1 314 -325 0
1 314 -359 0
1 314 236 0
1 -314 360 0
1 -314 310 0
1 -314 -305 0
1 -314 254 0
1 -314 235 0
1 -325 -359 0
1 -325 -350 0
1 -325 -360 0
1 325 -304 0
1 323 309 0
1 323 298 0
1 -323 -321 0
1 -323 -360 0
1 -323 -350 0
1 323 361 0
1 321 -309 0
1 321 357 0
1 321 -308 0
1 -321 -362 0
1 321 -323 0
1 305 -359 0
1 305 363 0
1 -305 322 0
1 -305 -323 0
1 305 351 0
1 359 332 0
1 359 -318 0
1 -359 316 0
1 -359 -363 0
1 360 -325 0
1 360 -308 0
1 360 316 0
1 -360 364 0
1 -360 -323 0
1 360 -351 0
1 -308 365 0
1 -308 325 0
1 308 364 0
1 308 -323 0
1 308 314 0
1 308 351 0
1 -322 362 0
1 322 -366 0
1 318 262 0
1 318 367 0
1 318 359 0
1 318 362 0
1 -318 -368 0
1 318 312 0
1 -318 -315 0
1 334 320 0
1 334 -369 0
1 334 274 0
1 334 305 0
1 332 270 0
1 332 -365 0
1 -332 -362 0
1 332 368 0
1 -332 250 0
1 332 -305 0
1 -332 -366 0
1 315 332 0
1 315 -318 0
1 315 -368 0
1 315 -331 0
1 315 -334 0
1 315 -322 0
1 -315 -323 0
1 368 315 0
1 -368 321 0
1 368 -339 0
1 368 -331 0
1 368 334 0
1 366 -370 0
1 -366 -318 0
1 366 321 0
1 -366 362 0
1 -366 334 0
1 366 322 0
1 366 323 0
1 -366 -235 0
1 362 371 0
1 -362 318 0
1 362 334 0
1 362 -366 0
1 -362 -322 0
1 362 323 0
1 331 333 0
1 331 248 0
1 331 -326 0
1 331 271 0
1 331 -250 0
1 331 328 0
1 333 371 0
1 -333 368 0
1 -333 372 0
1 -333 324 0
1 -333 328 0
1 333 315 0
1 -339 -329 0
1 -339 -372 0
1 339 373 0
1 -339 -340 0
1 340 -370 0
1 340 -369 0
1 -340 -329 0
1 340 -368 0
1 340 339 0
1 340 328 0
1 369 -339 0
1 369 331 0
1 369 334 0
1 319 -332 0
1 -319 -339 0
1 319 334 0
1 -320 339 0
1 320 -331 0
1 320 334 0
1 372 -333 0
1 -372 320 0
1 372 332 0
1 352 291 0
1 352 -374 0
1 352 348 0
1 352 -314 0
1 -354 -325 0
1 354 292 0
1 354 375 0
1 354 347 0
1 -361 376 0
1 -361 -353 0
1 361 377 0
1 -361 -378 0
1 357 -321 0
1 -357 378 0
1 357 -375 0
1 379 365 0
1 379 -375 0
1 379 354 0
1 379 364 0
1 -379 -361 0
1 379 -352 0
1 -375 -365 0
1 375 -367 0
1 375 -379 0
1 375 361 0
1 -375 352 0
1 374 -343 0
1 374 361 0
1 374 352 0
1 378 -354 0
1 -378 341 0
1 -378 361 0
1 -358 380 0
1 -358 -379 0
1 -358 -353 0
1 -358 -322 0
1 -358 360 0
1 358 -375 0
1 367 -380 0
1 367 318 0
1 -367 308 0
1 -367 377 0
1 367 349 0
1 -367 358 0
1 -367 375 0
1 -364 380 0
1 364 365 0
1 -364 379 0
1 -364 353 0
1 364 -377 0
1 -364 -381 0
1 -365 -380 0
1 365 -376 0
1 -365 -379 0
1 -365 353 0
1 377 370 0
1 377 -371 0
1 -377 376 0
1 -377 -365 0
1 -377 -367 0
1 -377 -358 0
1 376 -365 0
1 -376 -363 0
1 -376 -361 0
1 -353 365 0
1 -353 357 0
1 353 -292 0
1 353 -364 0
1 353 361 0
1 -380 -365 0
1 -380 367 0
1 380 357 0
1 380 353 0
1 380 364 0
1 -363 -376 0
1 363 382 0
1 363 356 0
1 -363 -359 0
1 -363 -362 0
1 363 331 0
1 363 377 0
1 -363 381 0
1 363 -360 0
1 363 305 0
1 -363 366 0
1 -371 -333 0
1 371 -359 0
1 -371 -363 0
1 371 -377 0
1 -371 305 0
1 -373 370 0
1 373 -376 0
1 373 -382 0
1 373 377 0
1 373 383 0
1 -370 -382 0
1 370 -356 0
1 -370 381 0
1 -370 366 0
1 370 340 0
1 -381 -370 0
1 -381 -356 0
1 381 -373 0
1 -381 364 0
1 381 -350 0
1 356 -365 0
1 356 -298 0
1 356 -373 0
1 356 -381 0
1 383 371 0
1 383 373 0
1 383 363 0
1 382 -371 0
1 -382 -365 0
1 -382 -373 0
1 -382 363 0
1 382 364 0
